\ Model RRP_copy
\ LP format - for model browsing. Use MPS format to capture full model detail.
Minimize
 
Subject To
 R22: t_ki[0,1] - t_ki[0,4] <= -100
 R84: t_ki[0,4] <= 50
Bounds
 t_ki[0,4] free
End
